/*********************************************
 * OPL 12.8.0.0 Data
 * Author: Tamer Abdelmaguid
 * Input data from a specially developed application
 * for the DMOSP problem.
 * Problem name: C:\Work\MOSP\Program\MOSPInstances\MOSP-6-12-1-1-1-3.mosp.dat
 *********************************************/

 nj = 11;
 nm = 11;
 no = 27;


 // Machines data:
	MW = [ 1, 2, 2, 3, 3, 3, 4, 4, 5, 6, 6];

 // Operations data:
	OJ = [ 1, 2, 2, 2, 2, 3, 3, 3, 3, 3, 4, 4, 4, 5, 6, 6, 7, 7, 7, 8, 8, 8, 8, 9, 10, 10, 11];
	OW = [ 5, 1, 2, 4, 5, 1, 3, 4, 5, 6, 1, 2, 5, 4, 1, 2, 1, 4, 6, 2, 3, 4, 6, 4, 3, 5, 4];

 // Ordered processing times:
	d = [
		26.00,
		38.00,
		95.00, 98.00,
		110.00, 109.00,
		27.00,
		41.00,
		78.00, 74.00, 78.00,
		113.00, 108.00,
		26.00,
		112.00, 109.00,
		39.00,
		96.00, 98.00,
		27.00,
		110.00, 117.00,
		38.00,
		92.00, 91.00,
		38.00,
		116.00, 113.00,
		112.00, 116.00,
		95.00, 95.00,
		77.00, 77.00, 78.00,
		108.00, 116.00,
		116.00, 108.00,
		118.00, 115.00,
		80.00, 76.00, 73.00,
		26.00,
		117.00, 118.00
	    ];

 bigM = 10000.00;

/********************************* MOD file *************************************
 int nj = ...;         // number of jobs
 range J = 1..nj;      // set of jobs

 int nm = ...;         // total number of machines
 range M = 1..nm;      // set of all machines in the shop
 int MW[M] = ...;      // workstation # to which machine m belongs

 int no = ...;         // total number of operations
 range O = 1..no;      // set of all operations
 int OJ[O] = ...;      // index of the job to which the operation belongs
 int OW[O] = ...;      // index of the workstation to which the operation belongs

 tuple TOpMc {
   int o;    // operation index
   int m;    // machine index
 };
 setof(TOpMc) Process = { <o, m> | o in O, m in M : OW[o] == MW[m] };
 float d[Process] = ...;         // processing times of operations on machines

 tuple TJOpPair {
   int w;    // index of the first operation
   int q;    // index of the second operation
 };
 setof(TJOpPair) DefX = { <w, q> | w, q in O : OJ[w] == OJ[q] && q > w};
 dvar int x[DefX] in 0..1;

 dvar int y[Process] in 0..1;

 tuple TOpPairMc {
   int j;   // index of the first operation
   int k;   // index of the second operation
   int m;   // machine index
 };
 setof(TOpPairMc) DefZ = { <j, k, m> | j, k in O, m in M : j != k && OW[j] == OW[k] && OW[j] == MW[m]};
 dvar int z[DefZ] in 0..1;

 dvar float+ s[O];
 dvar float+ c[J];
 dvar float Cmax;
 float bigM = ...;

 minimize Cmax;     // (1)

 subject to {
  Constraint1:
   forall(j in J) Cmax >= c[j];           // (2)

  Constraint2:
   forall(j in J)
     forall(o in O : OJ[o] == j)
       c[j] >= s[o] + sum(m in M : OW[o] == MW[m]) d[<o, m>] * y[<o, m>];        // (3)

  Constraint3:
   forall(o in O)
      sum(m in M : OW[o] == MW[m]) y[<o, m>] == 1;          // (4)

  Constraint4:
   forall(j in J)
     forall(w in O : OJ[w] == j)
       forall(r in O : OJ[r] == j && r > w)
         s[r] - s[w] >= sum(m in M : OW[w] == MW[m]) d[<w, m>] * y[<w, m>]
                        - bigM * (1 - x[<w, r>]);                                  // (5)

  Constraint5:
   forall(j in J)
     forall(w in O : OJ[w] == j)
       forall(r in O : OJ[r] == j && r > w)
         s[w] - s[r] >= sum(m in M : OW[r] == MW[m]) d[<r, m>] * y[<r, m>]
                        - bigM * x[<w, r>];                                        // (6)

  Constraint6:
   forall(j in O)
     forall(k in O : j < k)
       forall(m in M : OW[j] == MW[m] && OW[k] == MW[m])
         z[<j, k, m>] + z[<k, j, m>] <= (y[<j, m>] + y[<k, m>]) / 2;              // (7)

  Constraint9:
   forall(j in O)
     forall(k in O : j < k)
       forall(m in M : OW[j] == MW[m] && OW[k] == MW[m])
         z[<j, k, m>] + z[<k, j, m>] >= y[<j, m>] + y[<k, m>] - 1;                // (8)

  Constraint10:
   forall(j in O)
     forall(k in O : j != k && OW[k] == OW[j])
        s[k] - s[j] >= sum(m in M : OW[j] == MW[m]) d[<j, m>] * y[<j, m>]
                       - bigM * (1 - sum(m in M : OW[j] == MW[m]) z[<j, k, m>]);  // (9)
}
 ************************************************************************************/

/*main
{
 thisOplModel.generate();
 cplex.exportModel("C:\Work\DMOSP\Program\CPLEX\lpmodel.lp");
}/**/
